(declare-fun x1_ack!144 () (_ BitVec 64))
(declare-fun x2_ack!143 () (_ BitVec 64))
(declare-fun y1_ack!142 () (_ BitVec 64))
(assert (not (fp.eq ((_ to_fp 11 53) x1_ack!144) ((_ to_fp 11 53) #x0000000000000000))))
(assert (not (fp.eq ((_ to_fp 11 53) x2_ack!143) ((_ to_fp 11 53) #x3ff0000000000000))))
(assert (not (fp.eq ((_ to_fp 11 53) x2_ack!143) ((_ to_fp 11 53) #xbff0000000000000))))
(assert (fp.geq (fp.abs ((_ to_fp 11 53) x1_ack!144))
        (fp.abs ((_ to_fp 11 53) y1_ack!142))))

(check-sat)
(exit)
